
Gurobi 9.0.3 (win64) logging started Sat Jan  1 03:43:01 2022

Changed value of parameter LogFile to Results/sslp1_20_100_200_var_BendersBnC.log
   Prev:   Default: 
Changed value of parameter Heuristics to 0.0
   Prev: 0.05  Min: 0.0  Max: 1.0  Default: 0.05
Changed value of parameter lazyConstraints to 1
   Prev: 0  Min: 0  Max: 1  Default: 0
Changed value of parameter timeLimit to 7181.001448631287
   Prev: inf  Min: 0.0  Max: inf  Default: inf
Gurobi Optimizer version 9.0.3 build v9.0.3rc0 (win64)
Optimize a model with 3036 rows, 240 columns and 83160 nonzeros
Model fingerprint: 0xf5d68ea9
Variable types: 220 continuous, 20 integer (20 binary)
Coefficient statistics:
  Matrix range     [2e-13, 9e+05]
  Objective range  [5e-03, 4e+01]
  Bounds range     [1e+00, 1e+00]
  RHS range        [7e-15, 6e+04]
Warning: Model contains large matrix coefficient range
         Consider reformulating model or setting NumericFocus parameter
         to avoid numerical issues.
Presolve added 0 rows and 3 columns
Presolve removed 833 rows and 0 columns
Presolve time: 0.04s
Presolved: 2203 rows, 243 columns, 36560 nonzeros
Variable types: 222 continuous, 21 integer (20 binary)

Root relaxation: objective -1.171234e+03, 531 iterations, 0.09 seconds

    Nodes    |    Current Node    |     Objective Bounds      |     Work
 Expl Unexpl |  Obj  Depth IntInf | Incumbent    BestBd   Gap | It/Node Time

     0     0 -1171.2336    0   21          - -1171.2336      -     -    0s
     0     0 -1167.3853    0   20          - -1167.3853      -     -    0s
     0     0 -1166.4052    0   18          - -1166.4052      -     -    0s
     0     0 -1165.9893    0   18          - -1165.9893      -     -    0s
     0     0 -1165.7538    0   17          - -1165.7538      -     -    0s
     0     0 -1165.6137    0   17          - -1165.6137      -     -    0s
     0     0 -1165.5453    0   16          - -1165.5453      -     -    0s
     0     0 -1165.4495    0   17          - -1165.4495      -     -    0s
     0     0 -1165.3755    0   18          - -1165.3755      -     -    0s
     0     0 -1165.3493    0   17          - -1165.3493      -     -    0s
     0     0 -1165.3203    0   17          - -1165.3203      -     -    0s
     0     0 -1165.2964    0   17          - -1165.2964      -     -    0s
     0     0 -1165.2671    0   18          - -1165.2671      -     -    0s
     0     0 -1165.2591    0   17          - -1165.2591      -     -    0s
     0     0 -1165.2491    0   18          - -1165.2491      -     -    0s
     0     0 -1165.2428    0   18          - -1165.2428      -     -    0s
     0     0 -1165.2399    0   18          - -1165.2399      -     -    0s
     0     0 -1164.4153    0   18          - -1164.4153      -     -    0s
     0     0 -1163.8832    0   21          - -1163.8832      -     -    0s
     0     0 -1163.5873    0   20          - -1163.5873      -     -    0s
     0     0 -1163.3781    0   19          - -1163.3781      -     -    0s
     0     0 -1162.9552    0   18          - -1162.9552      -     -    0s
     0     0 -1162.7970    0   15          - -1162.7970      -     -    0s
     0     0 -1162.7190    0   18          - -1162.7190      -     -    0s
     0     0 -1162.6610    0   16          - -1162.6610      -     -    0s
     0     0 -1162.5934    0   16          - -1162.5934      -     -    0s
     0     0 -1162.4725    0   18          - -1162.4725      -     -    0s
     0     0 -1162.4158    0   16          - -1162.4158      -     -    0s
     0     0 -1162.3337    0   17          - -1162.3337      -     -    0s
     0     0 -1162.3026    0   18          - -1162.3026      -     -    0s
     0     0 -1162.2942    0   17          - -1162.2942      -     -    0s
     0     0 -1162.2917    0   17          - -1162.2917      -     -    0s
     0     0 -1162.2886    0   18          - -1162.2886      -     -    0s
     0     0 -1162.2819    0   17          - -1162.2819      -     -    0s
     0     0 -1162.2613    0   18          - -1162.2613      -     -    0s
     0     0 -1162.2549    0   17          - -1162.2549      -     -    0s
     0     0 -1162.2431    0   18          - -1162.2431      -     -    0s
     0     0 -1162.2363    0   17          - -1162.2363      -     -    0s
     0     0 -1162.2293    0   17          - -1162.2293      -     -    0s
     0     0 -1162.2288    0   17          - -1162.2288      -     -    0s
     0     0 -1161.8744    0   17          - -1161.8744      -     -    0s
     0     0 -1161.7059    0   16          - -1161.7059      -     -    1s
     0     0 -1161.6023    0   17          - -1161.6023      -     -    1s
     0     0 -1161.5294    0   18          - -1161.5294      -     -    1s
     0     0 -1161.5002    0   18          - -1161.5002      -     -    1s
     0     0 -1161.4755    0   19          - -1161.4755      -     -    1s
     0     0 -1161.4475    0   18          - -1161.4475      -     -    1s
     0     0 -1161.4296    0   17          - -1161.4296      -     -    1s
     0     0 -1161.4201    0   18          - -1161.4201      -     -    1s
     0     0 -1161.4145    0   17          - -1161.4145      -     -    1s
     0     0 -1161.4100    0   19          - -1161.4100      -     -    1s
     0     0 -1161.4004    0   18          - -1161.4004      -     -    1s
     0     0 -1161.3923    0   18          - -1161.3923      -     -    1s
     0     0 -1161.3876    0   18          - -1161.3876      -     -    1s
     0     0 -1161.3831    0   17          - -1161.3831      -     -    1s
     0     0 -1161.3804    0   18          - -1161.3804      -     -    1s
     0     0 -1161.1990    0   18          - -1161.1990      -     -    1s
     0     0 -1161.1236    0   17          - -1161.1236      -     -    1s
     0     0 -1161.1047    0   20          - -1161.1047      -     -    1s
     0     0 -1161.0966    0   18          - -1161.0966      -     -    1s
     0     0 -1161.0649    0   18          - -1161.0649      -     -    1s
     0     0 -1161.0535    0   19          - -1161.0535      -     -    1s
     0     0 -1161.0378    0   17          - -1161.0378      -     -    1s
     0     0 -1161.0345    0   18          - -1161.0345      -     -    1s
     0     0 -1161.0279    0   17          - -1161.0279      -     -    1s
     0     0 -1161.0223    0   18          - -1161.0223      -     -    1s
     0     0 -1161.0158    0   18          - -1161.0158      -     -    1s
     0     0 -1161.0105    0   19          - -1161.0105      -     -    1s
     0     0 -1161.0042    0   18          - -1161.0042      -     -    1s
     0     0 -1160.9954    0   18          - -1160.9954      -     -    1s
     0     0 -1160.9882    0   19          - -1160.9882      -     -    1s
     0     0 -1160.9850    0   19          - -1160.9850      -     -    1s
     0     0 -1160.9798    0   17          - -1160.9798      -     -    1s
     0     0 -1160.9756    0   17          - -1160.9756      -     -    1s
     0     0 -1160.9735    0   19          - -1160.9735      -     -    1s
     0     0 -1160.8541    0   17          - -1160.8541      -     -    1s
     0     0 -1160.7937    0   18          - -1160.7937      -     -    1s
     0     0 -1160.7234    0   17          - -1160.7234      -     -    1s
     0     0 -1160.7079    0   16          - -1160.7079      -     -    1s
     0     0 -1160.7022    0   18          - -1160.7022      -     -    1s
     0     0 -1160.6886    0   18          - -1160.6886      -     -    1s
     0     0 -1160.6848    0   19          - -1160.6848      -     -    1s
     0     0 -1160.6755    0   20          - -1160.6755      -     -    1s
     0     0 -1160.6711    0   19          - -1160.6711      -     -    1s
     0     0 -1160.6695    0   20          - -1160.6695      -     -    1s
     0     0 -1160.6204    0   19          - -1160.6204      -     -    1s
     0     0 -1160.5920    0   18          - -1160.5920      -     -    1s
     0     0 -1160.5737    0   17          - -1160.5737      -     -    1s
     0     0 -1160.5655    0   18          - -1160.5655      -     -    1s
     0     0 -1160.5569    0   18          - -1160.5569      -     -    1s
     0     0 -1160.5512    0   19          - -1160.5512      -     -    1s
     0     0 -1160.5488    0   20          - -1160.5488      -     -    1s
     0     0 -1160.4831    0   18          - -1160.4831      -     -    2s
     0     0 -1160.4646    0   19          - -1160.4646      -     -    2s
     0     0 -1160.4399    0   18          - -1160.4399      -     -    2s
     0     0 -1160.4268    0   18          - -1160.4268      -     -    2s
     0     0 -1160.4180    0   19          - -1160.4180      -     -    2s
     0     0 -1160.4132    0   19          - -1160.4132      -     -    2s
     0     0 -1160.4113    0   18          - -1160.4113      -     -    2s
     0     0 -1160.3600    0   18          - -1160.3600      -     -    2s
     0     0 -1160.3235    0   19          - -1160.3235      -     -    2s
     0     0 -1160.3080    0   19          - -1160.3080      -     -    2s
     0     0 -1160.3015    0   19          - -1160.3015      -     -    2s
     0     0 -1160.2954    0   20          - -1160.2954      -     -    2s
     0     0 -1160.2928    0   20          - -1160.2928      -     -    2s
     0     0 -1160.2362    0   18          - -1160.2362      -     -    2s
     0     0 -1160.2225    0   17          - -1160.2225      -     -    2s
     0     0 -1160.2128    0   17          - -1160.2128      -     -    2s
     0     0 -1160.2003    0   17          - -1160.2003      -     -    2s
     0     0 -1160.1938    0   18          - -1160.1938      -     -    2s
     0     0 -1160.1911    0   18          - -1160.1911      -     -    2s
     0     0 -1160.1588    0   16          - -1160.1588      -     -    2s
     0     0 -1160.1432    0   17          - -1160.1432      -     -    2s
     0     0 -1160.1322    0   17          - -1160.1322      -     -    2s
     0     0 -1160.1277    0   18          - -1160.1277      -     -    2s
     0     0 -1160.1252    0   18          - -1160.1252      -     -    2s
     0     0 -1160.0639    0   18          - -1160.0639      -     -    2s
     0     0 -1160.0482    0   18          - -1160.0482      -     -    2s
     0     0 -1160.0420    0   19          - -1160.0420      -     -    2s
     0     0 -1160.0386    0   19          - -1160.0386      -     -    2s
     0     0 -1160.0304    0   20          - -1160.0304      -     -    2s
     0     0 -1160.0296    0   17          - -1160.0296      -     -    2s
     0     0 -1160.0289    0   18          - -1160.0289      -     -    2s
     0     0 -1160.0179    0   19          - -1160.0179      -     -    2s
     0     0 -1160.0106    0   19          - -1160.0106      -     -    2s
     0     0 -1160.0053    0   18          - -1160.0053      -     -    2s
     0     0 -1160.0037    0   19          - -1160.0037      -     -    2s
     0     0 -1159.9995    0   19          - -1159.9995      -     -    2s
     0     0 -1159.9894    0   19          - -1159.9894      -     -    2s
     0     0 -1159.9856    0   18          - -1159.9856      -     -    2s
     0     0 -1159.9838    0   19          - -1159.9838      -     -    2s
     0     0 -1159.9757    0   16          - -1159.9757      -     -    3s
     0     0 -1159.9730    0   17          - -1159.9730      -     -    3s
     0     0 -1159.9663    0   18          - -1159.9663      -     -    3s
     0     2 -1159.9663    0   18          - -1159.9663      -     -    3s
    36    34 -1155.6327   15    6          - -1159.9628      -  60.9    5s
*   37    34              20    -533.9999872 -1159.9628   117%  64.6    6s
*   43    37              20    -738.5149820 -1159.9628  57.1%  70.0    9s
*   45    37              20    -741.4549817 -1159.9628  56.4%  73.1   10s
    57    45 -1156.5087    3    6 -741.45498 -1159.8983  56.4%  75.5   16s
    90    71 -1147.5362   20    - -741.45498 -1159.8983  56.4%  64.2   20s
*   98    69              20    -773.5099810 -1159.8983  50.0%  67.4   23s
   104    69 -1141.5999   18    - -773.50998 -1159.7804  49.9%  68.4   28s
*  110    71              20    -827.1049793 -1159.7804  40.2%  71.8   30s
*  116    72              20    -845.5849786 -1159.7804  37.2%  75.1   33s
   120    74 -1157.0032    8    9 -845.58498 -1159.7804  37.2%  74.8   35s
*  121    74              20    -862.0149777 -1159.7804  34.5%  75.8   36s
   152    91 -1147.0494   19    2 -862.01498 -1159.0394  34.5%  70.6   44s
   171    91 -905.52498   20    - -862.01498 -1158.8309  34.4%  73.4   51s
*  172    92              20    -886.0349783 -1158.8309  30.8%  74.2   52s
*  173    92              20    -893.7199777 -1158.8309  29.7%  74.9   53s
   183    93     cutoff   20      -893.71998 -1158.1097  29.6%  75.4   57s
   194    96 -1149.6289   12    - -893.71998 -1157.6492  29.5%  76.5   62s
   205   103 -1143.4247   14    - -893.71998 -1157.6492  29.5%  75.5   67s
   210   103 -1147.7116   15    - -893.71998 -1157.6492  29.5%  75.0   70s
   223   104 -1126.4907   15    - -893.71998 -1157.6492  29.5%  73.8   76s
   233   109 -1148.9922   16    - -893.71998 -1157.6492  29.5%  74.8   80s
   253   118 -1145.0408   15    4 -893.71998 -1157.6492  29.5%  72.1   88s
*  257   119              20    -914.7149774 -1157.1648  26.5%  72.0   90s
*  262   121              20    -933.0649771 -1157.1648  24.0%  71.7   93s
*  268   115              20    -952.3799762 -1156.7039  21.5%  73.2   95s
*  271   115              20    -953.4449761 -1156.7039  21.3%  73.8   97s
*  278   115              20    -955.3899756 -1156.5871  21.1%  73.8  103s
   286   125 -1149.2597    9    2 -955.38998 -1156.5058  21.1%  73.2  107s
   304   130     cutoff   20      -955.38998 -1156.3664  21.0%  71.3  111s
   320   136 -1116.6428   19    2 -955.38998 -1156.3664  21.0%  69.1  117s
   331   130 -1083.7986   20    - -955.38998 -1156.2270  21.0%  68.6  120s
   340   132     cutoff   20      -955.38998 -1156.2078  21.0%  68.7  126s
   353   133 -1148.1591    5    2 -955.38998 -1155.9225  21.0%  69.2  131s
   374   138 -1107.0910    9    - -955.38998 -1155.9225  21.0%  69.0  139s
   387   141 -1127.9613   11    3 -955.38998 -1155.9225  21.0%  68.2  142s
   398   144 -1103.6881   13    - -955.38998 -1155.9225  21.0%  67.8  147s
   407   158 -1103.6727   13    2 -955.38998 -1155.9225  21.0%  67.4  150s
   427   160 -1099.3529   15    2 -955.38998 -1155.9225  21.0%  65.3  155s
   436   164 -1120.1654   18    2 -955.38998 -1155.9225  21.0%  64.5  160s
   443   168 -1095.7077   17    2 -955.38998 -1155.9225  21.0%  64.3  165s
   461   165 -1095.4135   19    2 -955.38998 -1155.9225  21.0%  64.3  171s
   467   168     cutoff   20      -955.38998 -1155.9225  21.0%  64.1  175s
   495   178 -1116.3285   20    - -955.38998 -1154.4964  20.8%  63.0  181s
   510   183     cutoff   20      -955.38998 -1154.4964  20.8%  62.2  191s
   523   181     cutoff   20      -955.38998 -1154.4964  20.8%  62.0  197s
   528   183 -1075.6764   20    - -955.38998 -1154.4964  20.8%  61.8  200s
   544   183 -1149.9075   14    2 -955.38998 -1154.2329  20.8%  62.9  205s
   563   192 -1130.8271   14    2 -955.38998 -1154.2329  20.8%  61.8  215s
   581   197 -1105.3003   19    2 -955.38998 -1154.1965  20.8%  60.7  221s
   599   199     cutoff   20      -955.38998 -1154.1840  20.8%  60.4  229s
   612   205     cutoff   20      -955.38998 -1154.1820  20.8%  60.6  235s
   631   213     cutoff   20      -955.38998 -1154.1380  20.8%  60.1  242s
   659   222     cutoff   20      -955.38998 -1153.9710  20.8%  59.9  247s
   674   224     cutoff   20      -955.38998 -1153.9662  20.8%  59.8  254s
   683   229     cutoff   20      -955.38998 -1153.9099  20.8%  60.0  257s
   694   228 -1120.7445   20    - -955.38998 -1153.7748  20.8%  60.1  261s
   701   232     cutoff   20      -955.38998 -1153.7612  20.8%  60.3  265s
   732   240 -1152.4493   11    4 -955.38998 -1153.6188  20.7%  60.3  278s
   744   248 -1147.7184   14    3 -955.38998 -1153.6188  20.7%  60.7  284s
   756   247 -991.21413   18    3 -955.38998 -1153.6188  20.7%  60.8  289s
   760   250 -1100.1322   19    2 -955.38998 -1153.6188  20.7%  60.6  293s
*  766   251              20    -961.7899763 -1153.6188  19.9%  61.0  296s
   770   251 -1140.4557   17    2 -961.78998 -1153.3633  19.9%  60.9  300s
*  778   254              20    -963.6649754 -1153.3535  19.7%  61.1  305s
   796   262     cutoff   20      -963.66498 -1153.1059  19.7%  61.5  312s
   803   264 -1149.2126    9    5 -963.66498 -1153.1059  19.7%  61.4  315s
   825   267 -1096.5130   20    - -963.66498 -1153.0082  19.6%  61.1  321s
   853   282 -1151.0862   15    5 -963.66498 -1153.0082  19.6%  60.1  328s
   868   282 -1121.4345   17    - -963.66498 -1152.9411  19.6%  60.2  336s
   883   284 -1114.1092   19    2 -963.66498 -1152.8775  19.6%  60.2  342s
   893   289     cutoff   20      -963.66498 -1152.8363  19.6%  60.2  349s
   902   282     cutoff   20      -963.66498 -1152.7904  19.6%  60.6  353s
   909   285     cutoff   20      -963.66498 -1152.7343  19.6%  60.7  357s
   917   285     cutoff   20      -963.66498 -1152.6739  19.6%  60.6  361s
   932   293 -1132.4315   11    - -963.66498 -1152.5640  19.6%  61.2  369s
   947   307 -1124.1090   15    - -963.66498 -1152.5640  19.6%  60.8  379s
   971   312 -1149.9287   17    2 -963.66498 -1152.5619  19.6%  59.9  387s
   980   316 -1099.6471   18    2 -963.66498 -1152.4180  19.6%  59.8  393s
   989   315     cutoff   20      -963.66498 -1152.4179  19.6%  59.8  398s
  1000   318     cutoff   20      -963.66498 -1152.3990  19.6%  59.8  402s
  1007   317     cutoff   20      -963.66498 -1152.2610  19.6%  60.1  407s
  1024   324     cutoff   20      -963.66498 -1152.0210  19.5%  60.2  417s
  1036   328 -1141.0154   10    2 -963.66498 -1151.7680  19.5%  60.2  423s
  1051   326     cutoff   20      -963.66498 -1151.7632  19.5%  60.1  427s
  1065   332     cutoff   20      -963.66498 -1151.5994  19.5%  60.2  435s
  1091   342     cutoff   20      -963.66498 -1151.1988  19.5%  60.3  444s
  1120   349     cutoff   20      -963.66498 -1151.1757  19.5%  59.7  452s
  1130   371 -1132.2624   15    2 -963.66498 -1151.1757  19.5%  59.7  458s
  1162   366 -1124.6011   19    2 -963.66498 -1151.1757  19.5%  58.9  461s
  1187   385     cutoff   20      -963.66498 -1151.1757  19.5%  58.4  477s
* 1192   385              20    -973.1499761 -1151.1757  18.3%  58.4  478s
* 1195   381              20    -979.2599760 -1151.1757  17.6%  58.4  480s
  1236   390 -1104.8777   19    2 -979.25998 -1151.1757  17.6%  57.9  493s
  1260   389     cutoff   20      -979.25998 -1151.1757  17.6%  57.8  500s
  1276   361 -1090.5936   18    - -979.25998 -1151.1757  17.6%  58.0  505s
  1297   382 -1074.3895   19    2 -979.25998 -1151.1757  17.6%  57.4  528s
  1310   394 -1090.5843   18    2 -979.25998 -1151.1757  17.6%  57.2  540s
* 1312   391              20    -987.3749753 -1151.1757  16.6%  57.2  541s
  1358   388 -1082.4914   19    2 -987.37498 -1151.1757  16.6%  57.2  555s
  1401   361 -1067.0492   18    2 -987.37498 -1151.1757  16.6%  57.2  572s
  1418   373     cutoff   20      -987.37498 -1151.1757  16.6%  57.0  586s
  1464   371     cutoff   20      -987.37498 -1151.1757  16.6%  56.4  600s
  1482   367     cutoff   20      -987.37498 -1151.0628  16.6%  56.7  607s
  1507   385     cutoff   20      -987.37498 -1151.0214  16.6%  56.5  622s
  1532   391 -1139.4806   10    2 -987.37498 -1151.0104  16.6%  56.2  631s
  1554   392 -1003.5224   18    3 -987.37498 -1151.0104  16.6%  56.3  642s
  1574   398 -1010.1877   20    - -987.37498 -1150.9938  16.6%  56.5  650s
  1586   411 -1150.7625    6    2 -987.37498 -1150.7625  16.5%  56.6  656s
  1628   420     cutoff   20      -987.37498 -1150.7016  16.5%  56.7  671s
  1652   424     cutoff   20      -987.37498 -1150.6702  16.5%  56.7  682s
  1669   441     cutoff   20      -987.37498 -1150.5271  16.5%  56.7  691s
  1682   444 -1128.2378   16    2 -987.37498 -1150.5106  16.5%  56.5  695s
  1708   442     cutoff   20      -987.37498 -1150.4073  16.5%  56.1  706s
  1726   443     cutoff   20      -987.37498 -1150.3414  16.5%  56.2  719s
  1750   456     cutoff   20      -987.37498 -1150.2560  16.5%  56.3  733s
  1784   457 -1131.2333   18    2 -987.37498 -1150.1137  16.5%  56.1  745s
  1809   468     cutoff   20      -987.37498 -1149.6103  16.4%  56.1  758s
  1828   475     cutoff   20      -987.37498 -1149.4019  16.4%  56.0  767s
  1842   485 -1130.4247   16    2 -987.37498 -1149.3419  16.4%  55.9  771s
  1871   495 -1104.5932   20    - -987.37498 -1149.3412  16.4%  55.9  782s
  1895   496     cutoff   20      -987.37498 -1149.3129  16.4%  55.6  794s
  1941   492     cutoff   20      -987.37498 -1149.2784  16.4%  55.5  814s
  1987   508     cutoff   20      -987.37498 -1149.2784  16.4%  55.4  826s
  2001   486     cutoff   20      -987.37498 -1149.2267  16.4%  55.5  838s
  2059   516     cutoff   20      -987.37498 -1149.0983  16.4%  55.6  868s
  2071   521     cutoff   20      -987.37498 -1149.0983  16.4%  55.7  874s
  2099   514     cutoff   20      -987.37498 -1148.9760  16.4%  55.5  882s
  2139   515     cutoff   20      -987.37498 -1148.8725  16.4%  55.8  904s
  2186   536     cutoff   20      -987.37498 -1148.6999  16.3%  56.1  927s
  2200   540     cutoff   20      -987.37498 -1148.5901  16.3%  56.1  932s
  2203   550     cutoff   20      -987.37498 -1148.5513  16.3%  56.3  937s
  2230   558     cutoff   18      -987.37498 -1148.4526  16.3%  55.9  947s
  2250   551     cutoff   20      -987.37498 -1148.4316  16.3%  55.8  955s
  2265   555 -1128.9148   10    2 -987.37498 -1148.3142  16.3%  55.9  972s
  2301   584     cutoff   20      -987.37498 -1148.2189  16.3%  55.9  993s
  2323   587 -1127.9745    7    2 -987.37498 -1148.1337  16.3%  55.7  997s
  2346   594     cutoff   20      -987.37498 -1148.1312  16.3%  55.6 1007s
  2361   597     cutoff   20      -987.37498 -1147.9117  16.3%  55.6 1011s
  2379   607     cutoff   20      -987.37498 -1147.9009  16.3%  55.5 1021s
  2403   615 -1083.0744   20    - -987.37498 -1147.8676  16.3%  55.3 1031s
  2414   618     cutoff   20      -987.37498 -1147.8392  16.3%  55.3 1038s
  2461   623 -1120.3160   19    2 -987.37498 -1147.6246  16.2%  55.2 1055s
  2493   649     cutoff   20      -987.37498 -1147.5627  16.2%  55.4 1073s
  2546   667     cutoff   20      -987.37498 -1147.4421  16.2%  54.9 1091s
  2575   685 -1048.2858   18    3 -987.37498 -1147.2769  16.2%  54.8 1106s
  2601   693     cutoff   20      -987.37498 -1147.2769  16.2%  54.9 1116s
  2631   687     cutoff   20      -987.37498 -1147.2433  16.2%  54.6 1130s
  2659   687 -1124.4952   19    2 -987.37498 -1147.1586  16.2%  54.6 1148s
  2675   695     cutoff   20      -987.37498 -1146.9593  16.2%  54.7 1157s
  2695   699     cutoff   20      -987.37498 -1146.9591  16.2%  54.6 1173s
  2732   711     cutoff   20      -987.37498 -1146.9558  16.2%  54.6 1193s
  2773   739 -1127.8896    3    2 -987.37498 -1146.8287  16.1%  54.4 1213s
  2803   743     cutoff   20      -987.37498 -1146.6128  16.1%  54.1 1218s
  2827   764 -1094.2402   19    2 -987.37498 -1146.5028  16.1%  53.9 1240s
  2882   775     cutoff   20      -987.37498 -1146.3791  16.1%  53.6 1260s
  2894   780     cutoff   20      -987.37498 -1146.1386  16.1%  53.7 1265s
  2914   797     cutoff   20      -987.37498 -1146.0704  16.1%  53.8 1271s
  2959   809     cutoff   19      -987.37498 -1145.9238  16.1%  53.7 1284s
  3014   829     cutoff   20      -987.37498 -1145.7171  16.0%  53.5 1305s
  3053   826 -1112.3933   20    - -987.37498 -1145.5427  16.0%  53.3 1324s
  3085   844     cutoff   20      -987.37498 -1145.4033  16.0%  53.3 1346s
  3132   873     cutoff   20      -987.37498 -1144.9863  16.0%  53.1 1368s
  3200   881     cutoff   20      -987.37498 -1144.8483  15.9%  52.9 1390s
  3240   889     cutoff   20      -987.37498 -1144.2887  15.9%  52.9 1412s
  3294   907     cutoff   20      -987.37498 -1144.0125  15.9%  52.7 1442s
  3349   927     cutoff   20      -987.37498 -1143.5427  15.8%  52.6 1469s
  3390   941     cutoff   20      -987.37498 -1143.3828  15.8%  52.4 1483s
  3431   947     cutoff   20      -987.37498 -1143.0759  15.8%  52.3 1504s
  3476   953     cutoff   20      -987.37498 -1143.0134  15.8%  52.2 1531s
  3515   965     cutoff   20      -987.37498 -1142.4559  15.7%  52.4 1558s
  3569   968     cutoff   20      -987.37498 -1142.3559  15.7%  52.4 1584s
  3618   986 -1008.9950   20    - -987.37498 -1141.5999  15.6%  52.7 1611s
  3679   999     cutoff   20      -987.37498 -1141.0848  15.6%  52.8 1638s
  3705  1007     cutoff   20      -987.37498 -1140.9553  15.6%  52.7 1646s
  3746  1014     cutoff   20      -987.37498 -1140.7329  15.5%  52.7 1669s
  3793  1023     cutoff   20      -987.37498 -1140.5892  15.5%  52.5 1697s
  3825  1038     cutoff   20      -987.37498 -1140.5887  15.5%  52.4 1712s
  3848  1041     cutoff   20      -987.37498 -1140.2305  15.5%  52.4 1729s
  3882  1056     cutoff   20      -987.37498 -1140.2269  15.5%  52.3 1744s
  3906  1056     cutoff   20      -987.37498 -1140.1022  15.5%  52.3 1762s
  3958  1071     cutoff   20      -987.37498 -1139.6133  15.4%  52.3 1793s
  3993  1078     cutoff   20      -987.37498 -1139.4337  15.4%  52.3 1800s
  4012  1081     cutoff   20      -987.37498 -1139.3839  15.4%  52.3 1822s
  4031  1093     cutoff   20      -987.37498 -1139.3660  15.4%  52.4 1834s
  4062  1086     cutoff   20      -987.37498 -1138.7224  15.3%  52.3 1855s
  4114  1093     cutoff   20      -987.37498 -1137.7480  15.2%  52.3 1893s
  4175  1115     cutoff   20      -987.37498 -1137.2991  15.2%  52.4 1932s
  4203  1124     cutoff   20      -987.37498 -1136.4299  15.1%  52.3 1941s
  4223  1122     cutoff   20      -987.37498 -1136.3486  15.1%  52.3 1962s
  4260  1136 -1130.0310   14    2 -987.37498 -1135.7818  15.0%  52.3 1976s
  4293  1136     cutoff   20      -987.37498 -1135.7013  15.0%  52.3 2007s
  4317  1148     cutoff   20      -987.37498 -1134.9769  14.9%  52.2 2019s
  4342  1156     cutoff   20      -987.37498 -1134.9674  14.9%  52.2 2046s
  4377  1167     cutoff   20      -987.37498 -1134.1227  14.9%  52.2 2057s
  4423  1171     cutoff   20      -987.37498 -1134.0993  14.9%  52.3 2084s
  4462  1185     cutoff   20      -987.37498 -1133.7049  14.8%  52.3 2099s
  4485  1190 -1128.2174   18    2 -987.37498 -1133.6917  14.8%  52.2 2128s
  4532  1208     cutoff   20      -987.37498 -1133.0074  14.7%  52.2 2147s
  4561  1208     cutoff   20      -987.37498 -1132.9659  14.7%  52.2 2177s
  4633  1258     cutoff   20      -987.37498 -1132.4585  14.7%  52.0 2228s
  4684  1274 -1127.4749   15    2 -987.37498 -1132.2232  14.7%  51.8 2244s
  4724  1284     cutoff   20      -987.37498 -1132.1728  14.7%  51.7 2270s
  4787  1298     cutoff   20      -987.37498 -1132.0381  14.7%  51.6 2313s
  4865  1323     cutoff   20      -987.37498 -1131.8461  14.6%  51.3 2373s
  4901  1338     cutoff   20      -987.37498 -1131.6988  14.6%  51.2 2391s
  4924  1350     cutoff   20      -987.37498 -1131.6984  14.6%  51.3 2421s
  4961  1363 -1104.7528   18    2 -987.37498 -1131.6983  14.6%  51.2 2436s
  4989  1361     cutoff   20      -987.37498 -1131.5851  14.6%  51.1 2465s
  5015  1370     cutoff   20      -987.37498 -1131.5776  14.6%  51.1 2476s
  5032  1377 -1098.8882   12    2 -987.37498 -1131.5613  14.6%  51.1 2507s
  5070  1391     cutoff   20      -987.37498 -1131.1995  14.6%  51.0 2523s
  5106  1402     cutoff   20      -987.37498 -1131.1214  14.6%  50.9 2558s
  5181  1428     cutoff   20      -987.37498 -1130.8711  14.5%  50.7 2609s
  5225  1445     cutoff   20      -987.37498 -1130.7876  14.5%  50.6 2628s
  5263  1454     cutoff   20      -987.37498 -1130.7208  14.5%  50.5 2663s
  5302  1469     cutoff   20      -987.37498 -1130.6506  14.5%  50.5 2680s
  5335  1475     cutoff   20      -987.37498 -1130.6098  14.5%  50.4 2715s
  5416  1510     cutoff   20      -987.37498 -1130.4177  14.5%  50.1 2777s
  5462  1525     cutoff   20      -987.37498 -1130.4175  14.5%  50.0 2794s
  5503  1532 -1101.2255   19    2 -987.37498 -1130.2100  14.5%  49.9 2832s
  5577  1559 -1110.9026   18    2 -987.37498 -1130.1156  14.5%  49.9 2889s
  5656  1587     cutoff   20      -987.37498 -1129.8451  14.4%  49.7 2946s
  5740  1616     cutoff   20      -987.37498 -1129.7210  14.4%  49.7 2997s
  5782  1633     cutoff   20      -987.37498 -1129.5732  14.4%  49.6 3017s
  5830  1655     cutoff   20      -987.37498 -1129.5335  14.4%  49.4 3059s
  5915  1691 -1097.1692   14    2 -987.37498 -1129.4663  14.4%  49.3 3111s
  5962  1710     cutoff   20      -987.37498 -1129.4522  14.4%  49.2 3132s
  6011  1700     cutoff   20      -987.37498 -1129.4192  14.4%  49.0 3173s
  6047  1719     cutoff   20      -987.37498 -1129.3807  14.4%  49.0 3194s
  6083  1724 -1118.0293   17    2 -987.37498 -1129.2216  14.4%  49.1 3237s
  6129  1745     cutoff   20      -987.37498 -1129.1420  14.4%  49.0 3261s
  6160  1765     cutoff   20      -987.37498 -1129.0314  14.3%  49.0 3300s
  6247  1799     cutoff   20      -987.37498 -1128.9120  14.3%  48.8 3358s
  6339  1843     cutoff   20      -987.37498 -1128.8387  14.3%  48.5 3417s
  6377  1854 -1097.4302   19    2 -987.37498 -1128.8380  14.3%  48.4 3429s
  6416  1883     cutoff   20      -987.37498 -1128.7755  14.3%  48.4 3467s
  6501  1886     cutoff   20      -987.37498 -1128.7100  14.3%  48.1 3540s
  6531  1903     cutoff   20      -987.37498 -1128.5887  14.3%  48.1 3576s
  6558  1911     cutoff   20      -987.37498 -1128.5776  14.3%  48.0 3620s
  6598  1929 -1117.7739   12    2 -987.37498 -1128.5036  14.3%  48.0 3640s
  6634  1939     cutoff   20      -987.37498 -1128.4960  14.3%  47.9 3682s
  6704  1958     cutoff   20      -987.37498 -1128.3320  14.3%  47.9 3733s
  6765  1987     cutoff   20      -987.37498 -1128.1937  14.3%  47.8 3788s
  6859  2011 -1108.3534   15    2 -987.37498 -1128.0398  14.2%  47.6 3861s
  6897  2027     cutoff   20      -987.37498 -1127.9143  14.2%  47.5 3880s
  6939  2033     cutoff   20      -987.37498 -1127.8796  14.2%  47.5 3927s
  7011  2058     cutoff   20      -987.37498 -1127.7735  14.2%  47.3 3990s
  7069  2077     cutoff   20      -987.37498 -1127.6727  14.2%  47.2 4043s
  7096  2086     cutoff   20      -987.37498 -1127.6659  14.2%  47.2 4054s
  7123  2100     cutoff   20      -987.37498 -1127.5763  14.2%  47.2 4090s
  7164  2112 -1104.8126   15    2 -987.37498 -1127.5763  14.2%  47.3 4104s
  7206  2126 -993.38497   20    - -987.37498 -1127.5062  14.2%  47.2 4150s
  7283  2139 -1096.0577   20    - -987.37498 -1127.4305  14.2%  47.2 4207s
  7334  2162     cutoff   20      -987.37498 -1127.3771  14.2%  47.1 4232s
  7376  2167     cutoff   20      -987.37498 -1127.3002  14.2%  47.1 4281s
  7422  2184     cutoff   20      -987.37498 -1127.2371  14.2%  47.0 4301s
  7453  2196     cutoff   20      -987.37498 -1127.1414  14.2%  47.0 4345s
  7491  2212 -1106.9627   11    2 -987.37498 -1127.0655  14.1%  47.0 4364s
  7534  2217     cutoff   20      -987.37498 -1127.0197  14.1%  46.9 4408s
  7607  2263     cutoff   20      -987.37498 -1126.8815  14.1%  46.9 4470s
  7651  2274 -1117.3741   15    3 -987.37498 -1126.8693  14.1%  46.8 4483s
  7688  2291     cutoff   20      -987.37498 -1126.8336  14.1%  46.7 4529s
  7731  2301     cutoff   20      -987.37498 -1126.8121  14.1%  46.6 4540s
  7775  2316 -1093.2733   20    - -987.37498 -1126.7556  14.1%  46.6 4593s
  7823  2338     cutoff   20      -987.37498 -1126.7534  14.1%  46.5 4617s
  7876  2356     cutoff   20      -987.37498 -1126.6780  14.1%  46.4 4671s
  7942  2394 -1126.5699   15    2 -987.37498 -1126.5821  14.1%  46.2 4735s
  8025  2422 -1108.5813   12   18 -987.37498 -1126.4749  14.1%  46.1 4873s
  8027  2423 -1095.7102   19   21 -987.37498 -1126.4749  14.1%  46.1 5040s
  8028  2424 -1106.8487   15   21 -987.37498 -1126.4749  14.1%  46.1 5051s
  8030  2426 infeasible   14      -987.37498 -1126.4749  14.1%  46.2 5375s
  8032  2428 -1126.4749   15   12 -987.37498 -1126.4749  14.1%  46.2 5546s
  8034  2429 -1126.4749   16   10 -987.37498 -1126.4749  14.1%  46.2 5612s
  8036  2428     cutoff   16      -987.37498 -1126.4749  14.1%  46.3 5661s
  8038  2430 -1126.4749   17    8 -987.37498 -1126.4749  14.1%  46.3 5741s
  8040  2431 -1126.4749   17    6 -987.37498 -1126.4749  14.1%  46.3 5816s
  8042  2432 -1126.4749   18   11 -987.37498 -1126.4749  14.1%  46.4 5880s
  8044  2434 -1126.4749   18    3 -987.37498 -1126.4749  14.1%  46.4 5929s
  8047  2436 -1126.4749   19    5 -987.37498 -1126.4749  14.1%  46.5 5977s
  8050  2438 -1126.4749   20    5 -987.37498 -1126.4749  14.1%  46.5 6009s
  8054  2439 -1126.4749   22   10 -987.37498 -1126.4749  14.1%  46.5 6042s
  8058  2443 -1126.4749   23    9 -987.37498 -1126.4749  14.1%  46.6 6070s
  8063  2448 -1126.4749   24    8 -987.37498 -1126.4749  14.1%  46.6 6092s
  8070  2452 -1126.4749   26    7 -987.37498 -1126.4749  14.1%  46.7 6115s
  8076  2459 -1126.4749   28    5 -987.37498 -1126.4749  14.1%  46.7 6140s
  8085  2465 -1126.4749   30    5 -987.37498 -1126.4749  14.1%  46.8 6164s
  8096  2465 -1122.6133   33    2 -987.37498 -1126.4749  14.1%  46.9 6176s
  8110  2458     cutoff   36      -987.37498 -1126.4749  14.1%  46.9 6194s
  8124  2457 -1126.4749   22    9 -987.37498 -1126.4749  14.1%  47.0 6212s
  8134  2455 -1126.4749   25    9 -987.37498 -1126.4749  14.1%  47.1 6228s
  8141  2463 -1126.4749   24   10 -987.37498 -1126.4749  14.1%  47.2 6244s
  8152  2468 -1126.4749   29    6 -987.37498 -1126.4749  14.1%  47.2 6257s
  8170  2469 -1126.4749   32    4 -987.37498 -1126.4749  14.1%  47.3 6276s
  8189  2466     cutoff   33      -987.37498 -1126.4749  14.1%  47.3 6293s
  8201  2470     cutoff   37      -987.37498 -1126.4749  14.1%  47.4 6310s
  8214  2473 -1126.4749   27    5 -987.37498 -1126.4749  14.1%  47.5 6330s
  8245  2471 -1086.5674   32    2 -987.37498 -1126.4749  14.1%  47.6 6354s
  8265  2473     cutoff   38      -987.37498 -1126.4749  14.1%  47.6 6377s
  8281  2475 -1044.9485   38    2 -987.37498 -1126.4749  14.1%  47.7 6400s
  8304  2474 -1126.4749   25    8 -987.37498 -1126.4749  14.1%  47.8 6421s
  8318  2481     cutoff   25      -987.37498 -1126.4749  14.1%  47.9 6448s
  8356  2481 -1107.7068   30    2 -987.37498 -1126.4749  14.1%  47.9 6478s
  8371  2479 -1108.4898   35    2 -987.37498 -1126.4749  14.1%  47.9 6481s
  8395  2489 -1095.4083   36    2 -987.37498 -1126.4749  14.1%  47.9 6508s
  8408  2486 -1102.4100   36    2 -987.37498 -1126.4749  14.1%  47.9 6510s
  8422  2490 -1065.4681   37    2 -987.37498 -1126.4749  14.1%  48.0 6534s
  8428  2489     cutoff   37      -987.37498 -1126.4749  14.1%  48.0 6535s
  8438  2499     cutoff   38      -987.37498 -1126.4749  14.1%  48.0 6560s
  8473  2501 -1120.6151   34    2 -987.37498 -1126.4749  14.1%  48.1 6591s
  8506  2506 -1097.4039   35    2 -987.37498 -1126.4749  14.1%  48.1 6621s
  8525  2511 -1109.2964   23    2 -987.37498 -1126.4749  14.1%  48.2 6655s
  8548  2509 -1119.0983   27    3 -987.37498 -1126.4749  14.1%  48.2 6661s
  8572  2516 -1124.1642   31    2 -987.37498 -1126.4749  14.1%  48.2 6692s
  8618  2526 -1113.7297   35    2 -987.37498 -1126.4749  14.1%  48.1 6732s
  8642  2520     cutoff   38      -987.37498 -1126.4749  14.1%  48.1 6735s
  8664  2521 -1103.4699   35    2 -987.37498 -1126.4749  14.1%  48.2 6765s
  8701  2529 -1069.8881   37    2 -987.37498 -1126.4749  14.1%  48.2 6806s
  8722  2526 -1103.9683   24    2 -987.37498 -1126.4749  14.1%  48.2 6810s
  8749  2529 -1096.8425   29    2 -987.37498 -1126.4749  14.1%  48.3 6844s
  8774  2527 -1099.4783   29    2 -987.37498 -1126.4749  14.1%  48.3 6852s
  8806  2534 -1119.6007   29    3 -987.37498 -1126.4749  14.1%  48.3 6891s
  8837  2528     cutoff   37      -987.37498 -1126.4749  14.1%  48.3 6895s
  8856  2532     cutoff   36      -987.37498 -1126.4749  14.1%  48.3 6930s
  8890  2548 -1111.9330   28    2 -987.37498 -1126.4749  14.1%  48.4 6976s
  8936  2543     cutoff   38      -987.37498 -1126.4749  14.1%  48.3 6989s
  8949  2555 -1070.8090   37    2 -987.37498 -1126.4749  14.1%  48.3 7026s
  8986  2551 -1088.7983   31    2 -987.37498 -1126.4749  14.1%  48.3 7035s
  9021  2546     cutoff   38      -987.37498 -1126.4749  14.1%  48.3 7081s
  9055  2540 -1077.4774   37    2 -987.37498 -1126.4749  14.1%  48.4 7087s
  9083  2551 -1106.1678   27    2 -987.37498 -1126.4749  14.1%  48.4 7132s
  9142  2559 -1082.1179   36    2 -987.37498 -1126.4749  14.1%  48.5 7181s
  9166  2558     cutoff   37      -987.37498 -1126.4749  14.1%  48.5 7188s

Cutting planes:
  Lazy constraints: 35200

Explored 9194 nodes (451953 simplex iterations) in 7192.25 seconds
Thread count was 4 (of 4 available processors)

Solution count 10: -987.375 -979.26 -973.15 ... -914.715

Time limit reached
Best objective -9.873749753264e+02, best bound -1.126474947984e+03, gap 14.0879%

User-callback calls 277371, time in user-callback 3307.19 sec
